SAT
1 54 31 -50 -43 -2 74 -20 -4 19 -17 70 -8 35 30 34 12 -7 36 42 66 13 -32 -9 62 44 -23 -53 26 -10 -61 60 75 -63 68 -41 37 -51 -22 -67 40 -46 11 6 -33 -65 -57 29 -45 72 -69 58 -27 -49 -15 56 59 -14 -28 55 -71 -64 5 47 24 -38 48 -39 -21 73 18 16 52 3 -25 0
